# Solution for model PD-Stages
# Objective value = 4.0503427861068204e+01
zigjg[101,102,7] 0
zigjg[101,203,7] 0
zigjg[101,303,7] 0
zigjg[101,304,7] 0
zigjg[101,405,7] 1
zigjg[101,505,7] 0
zigjg[101,506,7] 0
zigjg[101,607,7] 0
zigjg[101,707,7] 0
zigjg[101,708,7] 0
zigjg[101,809,7] 0
zigjg[101,909,7] 0
zigjg[102,101,7] 0
zigjg[102,203,7] 0
zigjg[102,303,7] 1
zigjg[102,304,7] 0
zigjg[102,405,7] 0
zigjg[102,505,7] 0
zigjg[102,506,7] 0
zigjg[102,607,7] 0
zigjg[102,707,7] 0
zigjg[102,708,7] 0
zigjg[102,809,7] 0
zigjg[102,909,7] 0
zigjg[203,101,7] 0
zigjg[203,102,7] 0
zigjg[203,303,7] 0
zigjg[203,304,7] 0
zigjg[203,405,7] 0
zigjg[203,505,7] 0
zigjg[203,506,7] 0
zigjg[203,607,7] 0
zigjg[203,707,7] 0
zigjg[203,708,7] 0
zigjg[203,809,7] 1
zigjg[203,909,7] 0
zigjg[303,101,7] 1
zigjg[303,102,7] 0
zigjg[303,203,7] 0
zigjg[303,304,7] 0
zigjg[303,405,7] 0
zigjg[303,505,7] 0
zigjg[303,506,7] 0
zigjg[303,607,7] 0
zigjg[303,707,7] 0
zigjg[303,708,7] 0
zigjg[303,809,7] 0
zigjg[303,909,7] 0
zigjg[304,101,7] 0
zigjg[304,102,7] 0
zigjg[304,203,7] 0
zigjg[304,303,7] 0
zigjg[304,405,7] 0
zigjg[304,505,7] 0
zigjg[304,506,7] 1
zigjg[304,607,7] 0
zigjg[304,707,7] 0
zigjg[304,708,7] 0
zigjg[304,809,7] 0
zigjg[304,909,7] 0
zigjg[405,101,7] 0
zigjg[405,102,7] 0
zigjg[405,203,7] 0
zigjg[405,303,7] 0
zigjg[405,304,7] 0
zigjg[405,505,7] 0
zigjg[405,506,7] 0
zigjg[405,607,7] 1
zigjg[405,707,7] 0
zigjg[405,708,7] 0
zigjg[405,809,7] 0
zigjg[405,909,7] 0
zigjg[505,101,7] 0
zigjg[505,102,7] 0
zigjg[505,203,7] 0
zigjg[505,303,7] 0
zigjg[505,304,7] 0
zigjg[505,405,7] 0
zigjg[505,506,7] 0
zigjg[505,607,7] 0
zigjg[505,707,7] 0
zigjg[505,708,7] 1
zigjg[505,809,7] 0
zigjg[505,909,7] 0
zigjg[506,101,7] 0
zigjg[506,102,7] 0
zigjg[506,203,7] 0
zigjg[506,303,7] 0
zigjg[506,304,7] 0
zigjg[506,405,7] 0
zigjg[506,505,7] 0
zigjg[506,607,7] 0
zigjg[506,707,7] 0
zigjg[506,708,7] 0
zigjg[506,809,7] 0
zigjg[506,909,7] 1
zigjg[607,101,7] 0
zigjg[607,102,7] 0
zigjg[607,203,7] 0
zigjg[607,303,7] 0
zigjg[607,304,7] 1
zigjg[607,405,7] 0
zigjg[607,505,7] 0
zigjg[607,506,7] 0
zigjg[607,707,7] 0
zigjg[607,708,7] 0
zigjg[607,809,7] 0
zigjg[607,909,7] 0
zigjg[707,101,7] 0
zigjg[707,102,7] 1
zigjg[707,203,7] 0
zigjg[707,303,7] 0
zigjg[707,304,7] 0
zigjg[707,405,7] 0
zigjg[707,505,7] 0
zigjg[707,506,7] 0
zigjg[707,607,7] 0
zigjg[707,708,7] 0
zigjg[707,809,7] 0
zigjg[707,909,7] 0
zigjg[708,101,7] 0
zigjg[708,102,7] 0
zigjg[708,203,7] 1
zigjg[708,303,7] 0
zigjg[708,304,7] 0
zigjg[708,405,7] 0
zigjg[708,505,7] 0
zigjg[708,506,7] 0
zigjg[708,607,7] 0
zigjg[708,707,7] 0
zigjg[708,809,7] 0
zigjg[708,909,7] 0
zigjg[809,101,7] 0
zigjg[809,102,7] 0
zigjg[809,203,7] 0
zigjg[809,303,7] 0
zigjg[809,304,7] 0
zigjg[809,405,7] 0
zigjg[809,505,7] 0
zigjg[809,506,7] 0
zigjg[809,607,7] 0
zigjg[809,707,7] 9.9999999999999944e-01
zigjg[809,708,7] 0
zigjg[809,909,7] 0
zigjg[909,101,7] 0
zigjg[909,102,7] 0
zigjg[909,203,7] 0
zigjg[909,303,7] 0
zigjg[909,304,7] 0
zigjg[909,405,7] 0
zigjg[909,505,7] 1
zigjg[909,506,7] 0
zigjg[909,607,7] 0
zigjg[909,707,7] 0
zigjg[909,708,7] 0
zigjg[909,809,7] 0
sig[101,7] 0
sig[102,7] 11
sig[203,7] 8.0000000000000071e+00
sig[303,7] 12
sig[304,7] 3
sig[405,7] 1
sig[505,7] 6
sig[506,7] 4
sig[607,7] 2
sig[707,7] 10
sig[708,7] 7.0000000000000071e+00
sig[809,7] 9.0000000000000071e+00
sig[909,7] 5
digjg[101,102,7] 10000
digjg[101,203,7] 10000
digjg[101,303,7] 10000
digjg[101,304,7] 10000
digjg[101,405,7] 2.9159864615369262e+00
digjg[101,505,7] 10000
digjg[101,506,7] 10000
digjg[101,607,7] 10000
digjg[101,707,7] 10000
digjg[101,708,7] 10000
digjg[101,809,7] 10000
digjg[101,909,7] 10000
digjg[102,101,7] 10000
digjg[102,203,7] 10000
digjg[102,303,7] 5.3312990542637375e-06
digjg[102,304,7] 10000
digjg[102,405,7] 10000
digjg[102,505,7] 10000
digjg[102,506,7] 10000
digjg[102,607,7] 10000
digjg[102,707,7] 10000
digjg[102,708,7] 10000
digjg[102,809,7] 10000
digjg[102,909,7] 10000
digjg[203,101,7] 10000
digjg[203,102,7] 10000
digjg[203,303,7] 10000
digjg[203,304,7] 10000
digjg[203,405,7] 10000
digjg[203,505,7] 10000
digjg[203,506,7] 10000
digjg[203,607,7] 10000
digjg[203,707,7] 10000
digjg[203,708,7] 10000
digjg[203,809,7] 3.5146371557505249e+00
digjg[203,909,7] 10000
digjg[303,101,7] 1.46065335244355
digjg[303,102,7] 10000
digjg[303,203,7] 10000
digjg[303,304,7] 10000
digjg[303,405,7] 10000
digjg[303,505,7] 10000
digjg[303,506,7] 10000
digjg[303,607,7] 10000
digjg[303,707,7] 10000
digjg[303,708,7] 10000
digjg[303,809,7] 10000
digjg[303,909,7] 10000
digjg[304,101,7] 10000
digjg[304,102,7] 10000
digjg[304,203,7] 10000
digjg[304,303,7] 10000
digjg[304,405,7] 10000
digjg[304,505,7] 10000
digjg[304,506,7] 6.7350418554732650e-06
digjg[304,607,7] 10000
digjg[304,707,7] 10000
digjg[304,708,7] 10000
digjg[304,809,7] 10000
digjg[304,909,7] 10000
digjg[405,101,7] 10000
digjg[405,102,7] 10000
digjg[405,203,7] 10000
digjg[405,303,7] 10000
digjg[405,304,7] 10000
digjg[405,505,7] 10000
digjg[405,506,7] 10000
digjg[405,607,7] 1.6420936776665537e-06
digjg[405,707,7] 10000
digjg[405,708,7] 10000
digjg[405,809,7] 10000
digjg[405,909,7] 10000
digjg[505,101,7] 10000
digjg[505,102,7] 10000
digjg[505,203,7] 10000
digjg[505,303,7] 10000
digjg[505,304,7] 10000
digjg[505,405,7] 10000
digjg[505,506,7] 10000
digjg[505,607,7] 10000
digjg[505,707,7] 10000
digjg[505,708,7] 4.0816095560398873e+00
digjg[505,809,7] 10000
digjg[505,909,7] 10000
digjg[506,101,7] 10000
digjg[506,102,7] 10000
digjg[506,203,7] 10000
digjg[506,303,7] 10000
digjg[506,304,7] 10000
digjg[506,405,7] 10000
digjg[506,505,7] 10000
digjg[506,607,7] 10000
digjg[506,707,7] 10000
digjg[506,708,7] 10000
digjg[506,809,7] 10000
digjg[506,909,7] 1.6769300626800248e+00
digjg[607,101,7] 10000
digjg[607,102,7] 10000
digjg[607,203,7] 10000
digjg[607,303,7] 10000
digjg[607,304,7] 3.6854405096001490e+00
digjg[607,405,7] 10000
digjg[607,505,7] 10000
digjg[607,506,7] 10000
digjg[607,707,7] 10000
digjg[607,708,7] 10000
digjg[607,809,7] 10000
digjg[607,909,7] 10000
digjg[707,101,7] 10000
digjg[707,102,7] 2.8537972185953788e+00
digjg[707,203,7] 10000
digjg[707,303,7] 10000
digjg[707,304,7] 10000
digjg[707,405,7] 10000
digjg[707,505,7] 10000
digjg[707,506,7] 10000
digjg[707,607,7] 10000
digjg[707,708,7] 10000
digjg[707,809,7] 10000
digjg[707,909,7] 10000
digjg[708,101,7] 10000
digjg[708,102,7] 10000
digjg[708,203,7] 5.0780510063502016e+00
digjg[708,303,7] 10000
digjg[708,304,7] 10000
digjg[708,405,7] 10000
digjg[708,505,7] 10000
digjg[708,506,7] 10000
digjg[708,607,7] 10000
digjg[708,707,7] 10000
digjg[708,809,7] 10000
digjg[708,909,7] 10000
digjg[809,101,7] 10000
digjg[809,102,7] 10000
digjg[809,203,7] 10000
digjg[809,303,7] 10000
digjg[809,304,7] 10000
digjg[809,405,7] 10000
digjg[809,505,7] 10000
digjg[809,506,7] 10000
digjg[809,607,7] 10000
digjg[809,707,7] 1.6185673696139230e-01
digjg[809,708,7] 10000
digjg[809,909,7] 10000
digjg[909,101,7] 10000
digjg[909,102,7] 10000
digjg[909,203,7] 10000
digjg[909,303,7] 10000
digjg[909,304,7] 10000
digjg[909,405,7] 10000
digjg[909,505,7] 2.5668726832496382e+00
digjg[909,506,7] 10000
digjg[909,607,7] 10000
digjg[909,707,7] 10000
digjg[909,708,7] 10000
digjg[909,809,7] 10000
difigjg[101,102,7,0] 5.0359948598937463e+03
difigjg[101,102,7,1] 3.9050671439237294e+03
difigjg[101,203,7,0] 4.3743608351138255e+03
difigjg[101,203,7,1] 4.7854482641535033e+03
difigjg[101,303,7,0] 5.3802807472109635e+03
difigjg[101,303,7,1] 3591.33333374698
difigjg[101,304,7,0] 5.0330879867032909e+03
difigjg[101,304,7,1] 4.0012163965353088e+03
difigjg[101,405,7,0] 2.33251084976105
difigjg[101,405,7,1] 1.7499629037712436e+00
difigjg[101,505,7,0] 5.0316940700975892e+03
difigjg[101,505,7,1] 3.8864934339728134e+03
difigjg[101,506,7,0] 5.0214849818054336e+03
difigjg[101,506,7,1] 3.8931992167887329e+03
difigjg[101,607,7,0] 4.4741273860330193e+03
difigjg[101,607,7,1] 4.0119575886987918e+03
difigjg[101,707,7,0] 5.1444674976306633e+03
difigjg[101,707,7,1] 3.6604135979944981e+03
difigjg[101,708,7,0] 4.1310490557675939e+03
difigjg[101,708,7,1] 3.9028691906425638e+03
difigjg[101,809,7,0] 4.4982414021004861e+03
difigjg[101,809,7,1] 3.9656901626742570e+03
difigjg[101,909,7,0] 5.0956144677738994e+03
difigjg[101,909,7,1] 3.6867481077271755e+03
difigjg[102,101,7,0] 5.0614344918079114e+03
difigjg[102,101,7,1] 3.8782978538383904e+03
difigjg[102,203,7,0] 4.0588328141308771e+03
difigjg[102,203,7,1] 4.8097733004147058e+03
difigjg[102,303,7,0] 4.95195561513744e-06
difigjg[102,303,7,1] 1.7761605913443108e-06
difigjg[102,304,7,0] 4.1764558646072364e+03
difigjg[102,304,7,1] 4.0997743450265689e+03
difigjg[102,405,7,0] 3.8835271295529619e+03
difigjg[102,405,7,1] 4.0493762546627936e+03
difigjg[102,505,7,0] 4.1999032187430712e+03
difigjg[102,505,7,1] 3.9963156219739717e+03
difigjg[102,506,7,0] 4.8962988050320528e+03
difigjg[102,506,7,1] 3.8570873757241693e+03
difigjg[102,607,7,0] 4.1086486622775528e+03
difigjg[102,607,7,1] 3.9720483718676842e+03
difigjg[102,707,7,0] 5.1047576093177440e+03
difigjg[102,707,7,1] 3.8257574114378713e+03
difigjg[102,708,7,0] 4.0761639922761874e+03
difigjg[102,708,7,1] 3.9779546140644838e+03
difigjg[102,809,7,0] 3.8935628505796180e+03
difigjg[102,809,7,1] 3.9715229838018381e+03
difigjg[102,909,7,0] 5.1816367399318333e+03
difigjg[102,909,7,1] 3.7593613609670560e+03
difigjg[203,101,7,0] 4.3523923784399076e+03
difigjg[203,101,7,1] 4.7534159671469388e+03
difigjg[203,102,7,0] 4.0373053528291621e+03
difigjg[203,102,7,1] 4.8084850562279153e+03
difigjg[203,303,7,0] 5.2556287072545883e+03
difigjg[203,303,7,1] 4.5401549207982353e+03
difigjg[203,304,7,0] 4.0192404608827733e+03
difigjg[203,304,7,1] 4.8811043890172577e+03
difigjg[203,405,7,0] 4.8499863355560074e+03
difigjg[203,405,7,1] 4.0327743207556218e+03
difigjg[203,505,7,0] 5.0036788677841914e+03
difigjg[203,505,7,1] 3.9703657772405377e+03
difigjg[203,506,7,0] 4.0990222907931238e+03
difigjg[203,506,7,1] 4.0644724412412438e+03
difigjg[203,607,7,0] 4.8503242728280466e+03
difigjg[203,607,7,1] 3.9694384617239552e+03
difigjg[203,707,7,0] 5.0737078234552182e+03
difigjg[203,707,7,1] 3.9474399109963383e+03
difigjg[203,708,7,0] 4.0721516538837154e+03
difigjg[203,708,7,1] 3.9634613716669355e+03
difigjg[203,809,7,0] 4.9996246786565984e-01
difigjg[203,809,7,1] 3.4788945852926294e+00
difigjg[203,909,7,0] 5.1637800089544780e+03
difigjg[203,909,7,1] 3.8730112573184779e+03
difigjg[303,101,7,0] 1.0820807889040993e+00
difigjg[303,101,7,1] 9.8112649060637114e-01
difigjg[303,102,7,0] 4.5295201877280124e+03
difigjg[303,102,7,1] 3.9012573844662638e+03
difigjg[303,203,7,0] 5.2165531464851920e+03
difigjg[303,203,7,1] 4.5650099731709270e+03
difigjg[303,304,7,0] 5.2295940188781833e+03
difigjg[303,304,7,1] 4.5617392992048244e+03
difigjg[303,405,7,0] 5.3520051055262456e+03
difigjg[303,405,7,1] 3.8133323597136919e+03
difigjg[303,505,7,0] 5.3224338378402817e+03
difigjg[303,505,7,1] 3.8082964266893623e+03
difigjg[303,506,7,0] 5.3162685607688236e+03
difigjg[303,506,7,1] 3.8222239340472393e+03
difigjg[303,607,7,0] 5.2993773822621770e+03
difigjg[303,607,7,1] 3.8370924857321279e+03
difigjg[303,707,7,0] 5.4009918501487064e+03
difigjg[303,707,7,1] 3.5964561554914467e+03
difigjg[303,708,7,0] 4.5291916149460094e+03
difigjg[303,708,7,1] 3.8331989188628040e+03
difigjg[303,809,7,0] 5.3040074547519962e+03
difigjg[303,809,7,1] 3789.73454411069
difigjg[303,909,7,0] 5.4191934157735777e+03
difigjg[303,909,7,1] 3.5874203738646629e+03
difigjg[304,101,7,0] 5.0556157423937593e+03
difigjg[304,101,7,1] 3.9552861465316469e+03
difigjg[304,102,7,0] 4.1790293304721963e+03
difigjg[304,102,7,1] 4.0903534669124488e+03
difigjg[304,203,7,0] 4.0276035975933191e+03
difigjg[304,203,7,1] 4.8767914675672710e+03
difigjg[304,303,7,0] 5.2380347429273461e+03
difigjg[304,303,7,1] 4.5535092890301730e+03
difigjg[304,405,7,0] 4.0090417311725842e+03
difigjg[304,405,7,1] 4.8567378513990034e+03
difigjg[304,505,7,0] 4.1855811613626975e+03
difigjg[304,505,7,1] 4.0768690589242919e+03
difigjg[304,506,7,0] 4.48100263112055e-06
difigjg[304,506,7,1] 4.7437264106116415e-06
difigjg[304,607,7,0] 4.0765970074562779e+03
difigjg[304,607,7,1] 4.0440366828432348e+03
difigjg[304,707,7,0] 5092.88482635855
difigjg[304,707,7,1] 3.9151975692599281e+03
difigjg[304,708,7,0] 4.1058239565073281e+03
difigjg[304,708,7,1] 3951.40508807338
difigjg[304,809,7,0] 4.1255213835430159e+03
difigjg[304,809,7,1] 4.0021201826256233e+03
difigjg[304,909,7,0] 5.1683728254818179e+03
difigjg[304,909,7,1] 3.8400964615699313e+03
difigjg[405,101,7,0] 4.5230746837740553e+03
difigjg[405,101,7,1] 3.9353362654192697e+03
difigjg[405,102,7,0] 3.8829518175610860e+03
difigjg[405,102,7,1] 4.0436414775810249e+03
difigjg[405,203,7,0] 4.8640724459684870e+03
difigjg[405,203,7,1] 4.0254693448418311e+03
difigjg[405,303,7,0] 5.3621465076043833e+03
difigjg[405,303,7,1] 3810.47570875911
difigjg[405,304,7,0] 4.0117455442508149e+03
difigjg[405,304,7,1] 4.8556014173640051e+03
difigjg[405,505,7,0] 4.2690208832928693e+03
difigjg[405,505,7,1] 4.6611147248531961e+03
difigjg[405,506,7,0] 3.9933910454115057e+03
difigjg[405,506,7,1] 4.8657485068750220e+03
difigjg[405,607,7,0] 1.4452926599650290e-06
difigjg[405,607,7,1] 5.9918402624866747e-07
difigjg[405,707,7,0] 5.0994986386030587e+03
difigjg[405,707,7,1] 3.8801863926475353e+03
difigjg[405,708,7,0] 4.0517765386975721e+03
difigjg[405,708,7,1] 3.9483253535978874e+03
difigjg[405,809,7,0] 4.4457834779447940e+03
difigjg[405,809,7,1] 4.0396103137595146e+03
difigjg[405,909,7,0] 5.2025433630074167e+03
difigjg[405,909,7,1] 3.7736980348633379e+03
difigjg[505,101,7,0] 5.0717409522757162e+03
difigjg[505,101,7,1] 3.8080536913042833e+03
difigjg[505,102,7,0] 4.2742384023065624e+03
difigjg[505,102,7,1] 3.9646948066597924e+03
difigjg[505,203,7,0] 5004.87712784525
difigjg[505,203,7,1] 3.9579444066854326e+03
difigjg[505,303,7,0] 5.3346550177281160e+03
difigjg[505,303,7,1] 3773.01965063392
difigjg[505,304,7,0] 4.2625639156029156e+03
difigjg[505,304,7,1] 4059.56686409977
difigjg[505,405,7,0] 4194.80395908402
difigjg[505,405,7,1] 4.6852814474880024e+03
difigjg[505,506,7,0] 4.1275740675148245e+03
difigjg[505,506,7,1] 4.8304130063849816e+03
difigjg[505,607,7,0] 4.2443446224407689e+03
difigjg[505,607,7,1] 4.0769547415526604e+03
difigjg[505,707,7,0] 5.1095392058083744e+03
difigjg[505,707,7,1] 3.9311547760729723e+03
difigjg[505,708,7,0] 3.40007805398131
difigjg[505,708,7,1] 2.2580972029151360e+00
difigjg[505,809,7,0] 4.2666039513273363e+03
difigjg[505,809,7,1] 4.0320563946080292e+03
difigjg[505,909,7,0] 5.2131594741173831e+03
difigjg[505,909,7,1] 3.8047720314254052e+03
difigjg[506,101,7,0] 5.0522392767495185e+03
difigjg[506,101,7,1] 3.8681997591345867e+03
difigjg[506,102,7,0] 4896.04609618259
difigjg[506,102,7,1] 3.8560610783151146e+03
difigjg[506,203,7,0] 4.1180202011826887e+03
difigjg[506,203,7,1] 4.0575480395730588e+03
difigjg[506,303,7,0] 5.3103061445907988e+03
difigjg[506,303,7,1] 3.8247273916282065e+03
difigjg[506,304,7,0] 4.8834826146795785e+03
difigjg[506,304,7,1] 3.9298853111952567e+03
difigjg[506,405,7,0] 4.0001114152085133e+03
difigjg[506,405,7,1] 4.8656090662653451e+03
difigjg[506,505,7,0] 4070.53986601873
difigjg[506,505,7,1] 4.8506682955200949e+03
difigjg[506,607,7,0] 3.9593681628405620e+03
difigjg[506,607,7,1] 4.8823166487032049e+03
difigjg[506,707,7,0] 4.9611651797160512e+03
difigjg[506,707,7,1] 4.6669259138380767e+03
difigjg[506,708,7,0] 4.1132750317556720e+03
difigjg[506,708,7,1] 4.0169378352537283e+03
difigjg[506,809,7,0] 3.9992536185649647e+03
difigjg[506,809,7,1] 4860.7033162714
difigjg[506,909,7,0] 0.0160788822250672
difigjg[506,909,7,1] 1.6768525139355717e+00
difigjg[607,101,7,0] 4.4910873285105472e+03
difigjg[607,101,7,1] 3.9724170310712730e+03
difigjg[607,102,7,0] 4.1077865010776422e+03
difigjg[607,102,7,1] 3964.48034110791
difigjg[607,203,7,0] 4.8579402521361108e+03
difigjg[607,203,7,1] 3.9629859594878712e+03
difigjg[607,303,7,0] 5314.56442197203
difigjg[607,303,7,1] 3.8316238030008358e+03
difigjg[607,304,7,0] 3.2745448549456091e+00
difigjg[607,304,7,1] 1.6911024483766439e+00
difigjg[607,405,7,0] 4.8796114051675631e+03
difigjg[607,405,7,1] 3.9858116405588576e+03
difigjg[607,505,7,0] 4.3186693656410516e+03
difigjg[607,505,7,1] 4.0570188256425740e+03
difigjg[607,506,7,0] 3.9576302921945880e+03
difigjg[607,506,7,1] 4.8816082072147565e+03
difigjg[607,707,7,0] 5.0809365700034277e+03
difigjg[607,707,7,1] 4.0512135296031888e+03
difigjg[607,708,7,0] 4.0151717647308092e+03
difigjg[607,708,7,1] 4.0117120418119916e+03
difigjg[607,809,7,0] 4.8756060015231951e+03
difigjg[607,809,7,1] 4.0098421089787994e+03
difigjg[607,909,7,0] 5.1942106833705557e+03
difigjg[607,909,7,1] 3.9468689818428479e+03
difigjg[707,101,7,0] 5.0492927189199791e+03
difigjg[707,101,7,1] 3.6827460647234539e+03
difigjg[707,102,7,0] 5.2511576190532083e-01
difigjg[707,102,7,1] 2.8050683372782825e+00
difigjg[707,203,7,0] 5.0021380685117456e+03
difigjg[707,203,7,1] 3.9723623657875964e+03
difigjg[707,303,7,0] 5.3953432484160448e+03
difigjg[707,303,7,1] 3.5874671536030223e+03
difigjg[707,304,7,0] 4.9954662706726449e+03
difigjg[707,304,7,1] 3.9467974915513478e+03
difigjg[707,405,7,0] 5.0209334441572028e+03
difigjg[707,405,7,1] 3.9083205520863139e+03
difigjg[707,505,7,0] 5.0190121156437826e+03
difigjg[707,505,7,1] 3.9141288806687121e+03
difigjg[707,506,7,0] 4.8839052370860090e+03
difigjg[707,506,7,1] 4694.88695438043
difigjg[707,607,7,0] 5.0061346185498232e+03
difigjg[707,607,7,1] 4.0744207904496388e+03
difigjg[707,708,7,0] 4.3004548884824180e+03
difigjg[707,708,7,1] 3.9142473800469188e+03
difigjg[707,809,7,0] 4.8937894437014247e+03
difigjg[707,809,7,1] 4.6513331740543663e+03
difigjg[707,909,7,0] 5.2356815213715527e+03
difigjg[707,909,7,1] 3.6514120284149185e+03
difigjg[708,101,7,0] 4.0861114397446690e+03
difigjg[708,101,7,1] 3.9009562880701565e+03
difigjg[708,102,7,0] 4087.92673075277
difigjg[708,102,7,1] 3.9803534374949691e+03
difigjg[708,203,7,0] 4.2399006964001043e+00
difigjg[708,203,7,1] 2.7946097917219208e+00
difigjg[708,303,7,0] 4.6042679678271406e+03
difigjg[708,303,7,1] 3.8499325337405203e+03
difigjg[708,304,7,0] 4.1107433510656774e+03
difigjg[708,304,7,1] 3.9605659902794491e+03
difigjg[708,405,7,0] 4.0633176208677032e+03
difigjg[708,405,7,1] 3.9575756880369172e+03
difigjg[708,505,7,0] 4.1873250788791247e+03
difigjg[708,505,7,1] 3.9356573312011406e+03
difigjg[708,506,7,0] 4.1254717623868664e+03
difigjg[708,506,7,1] 4.0362798974495227e+03
difigjg[708,607,7,0] 4.0224720962738625e+03
difigjg[708,607,7,1] 4.0286651990998262e+03
difigjg[708,707,7,0] 4.4965763104920043e+03
difigjg[708,707,7,1] 3.8819764401534026e+03
difigjg[708,809,7,0] 3.9643688530987624e+03
difigjg[708,809,7,1] 4.7852656183972467e+03
difigjg[708,909,7,0] 5.0764435598982782e+03
difigjg[708,909,7,1] 4.3387769855380629e+03
difigjg[809,101,7,0] 4505.65879288295
difigjg[809,101,7,1] 3.9316118180493577e+03
difigjg[809,102,7,0] 3.8922978053129846e+03
difigjg[809,102,7,1] 3.9740918468722889e+03
difigjg[809,203,7,0] 4.8795584785361889e+03
difigjg[809,203,7,1] 3.9138008565553678e+03
difigjg[809,303,7,0] 5.3111509433237052e+03
difigjg[809,303,7,1] 3.7839433513700856e+03
difigjg[809,304,7,0] 4.1280651286165157e+03
difigjg[809,304,7,1] 3.9982583308234725e+03
difigjg[809,405,7,0] 4.4444659984588352e+03
difigjg[809,405,7,1] 4.0430610288477769e+03
difigjg[809,505,7,0] 4.3410391945230331e+03
difigjg[809,505,7,1] 4.0087473621462509e+03
difigjg[809,506,7,0] 3.9983100437649287e+03
difigjg[809,506,7,1] 4.8631848017846924e+03
difigjg[809,607,7,0] 4.8742503782672957e+03
difigjg[809,607,7,1] 4.0077056816147010e+03
difigjg[809,707,7,0] 2.9351270163705721e-02
difigjg[809,707,7,1] 1.5917300255169634e-01
difigjg[809,708,7,0] 3.9554054695939444e+03
difigjg[809,708,7,1] 4.7743866243791408e+03
difigjg[809,909,7,0] 4.0633062954038683e+03
difigjg[809,909,7,1] 4.1504863062359082e+03
difigjg[909,101,7,0] 5.1019495413143914e+03
difigjg[909,101,7,1] 3.6940146100457791e+03
difigjg[909,102,7,0] 5.1287484899444871e+03
difigjg[909,102,7,1] 3.7691468194293993e+03
difigjg[909,203,7,0] 5.1242028001640983e+03
difigjg[909,203,7,1] 3.8913335800823170e+03
difigjg[909,303,7,0] 5.3401991453823139e+03
difigjg[909,303,7,1] 3.5946949937028976e+03
difigjg[909,304,7,0] 5107.43347997682
difigjg[909,304,7,1] 3.8723333563573815e+03
difigjg[909,405,7,0] 5.1463994719455650e+03
difigjg[909,405,7,1] 3.8175017389087484e+03
difigjg[909,505,7,0] 3.2907460951477635e-01
difigjg[909,505,7,1] 2.5456893270662384e+00
difigjg[909,506,7,0] 5.1155156368051894e+03
difigjg[909,506,7,1] 4.0037205493895085e+03
difigjg[909,607,7,0] 5.1398265555874532e+03
difigjg[909,607,7,1] 3.9909431612256735e+03
difigjg[909,707,7,0] 5.0578054884824742e+03
difigjg[909,707,7,1] 3.6972800325041226e+03
difigjg[909,708,7,0] 5.0396387737510740e+03
difigjg[909,708,7,1] 4.3186627918860859e+03
difigjg[909,809,7,0] 4.1112611424504048e+03
difigjg[909,809,7,1] 4.1769254095530041e+03
pigjg[101,102,7] 0
pigjg[101,203,7] 0
pigjg[101,303,7] 0
pigjg[101,304,7] 0
pigjg[101,405,7] 2.9159864615369262e+00
pigjg[101,505,7] 0
pigjg[101,506,7] 0
pigjg[101,607,7] 0
pigjg[101,707,7] 0
pigjg[101,708,7] 0
pigjg[101,809,7] 0
pigjg[101,909,7] 0
pigjg[102,101,7] 0
pigjg[102,203,7] 0
pigjg[102,303,7] 5.3312990542637375e-06
pigjg[102,304,7] 0
pigjg[102,405,7] 0
pigjg[102,505,7] 0
pigjg[102,506,7] 0
pigjg[102,607,7] 0
pigjg[102,707,7] 0
pigjg[102,708,7] 0
pigjg[102,809,7] 0
pigjg[102,909,7] 0
pigjg[203,101,7] 0
pigjg[203,102,7] 0
pigjg[203,303,7] 0
pigjg[203,304,7] 0
pigjg[203,405,7] 0
pigjg[203,505,7] 0
pigjg[203,506,7] 0
pigjg[203,607,7] 0
pigjg[203,707,7] 0
pigjg[203,708,7] 0
pigjg[203,809,7] 3.5146371557505249e+00
pigjg[203,909,7] 0
pigjg[303,101,7] 1.46065335244355
pigjg[303,102,7] 0
pigjg[303,203,7] 0
pigjg[303,304,7] 0
pigjg[303,405,7] 0
pigjg[303,505,7] 0
pigjg[303,506,7] 0
pigjg[303,607,7] 0
pigjg[303,707,7] 0
pigjg[303,708,7] 0
pigjg[303,809,7] 0
pigjg[303,909,7] 0
pigjg[304,101,7] 0
pigjg[304,102,7] 0
pigjg[304,203,7] 0
pigjg[304,303,7] 0
pigjg[304,405,7] 0
pigjg[304,505,7] 0
pigjg[304,506,7] 6.7350418554732650e-06
pigjg[304,607,7] 0
pigjg[304,707,7] 0
pigjg[304,708,7] 0
pigjg[304,809,7] 0
pigjg[304,909,7] 0
pigjg[405,101,7] 0
pigjg[405,102,7] 0
pigjg[405,203,7] 0
pigjg[405,303,7] 0
pigjg[405,304,7] 0
pigjg[405,505,7] 0
pigjg[405,506,7] 0
pigjg[405,607,7] 1.6420936776665537e-06
pigjg[405,707,7] 0
pigjg[405,708,7] 0
pigjg[405,809,7] 0
pigjg[405,909,7] 0
pigjg[505,101,7] 0
pigjg[505,102,7] 0
pigjg[505,203,7] 0
pigjg[505,303,7] 0
pigjg[505,304,7] 0
pigjg[505,405,7] 0
pigjg[505,506,7] 0
pigjg[505,607,7] 0
pigjg[505,707,7] 0
pigjg[505,708,7] 4.0816095560398873e+00
pigjg[505,809,7] 0
pigjg[505,909,7] 0
pigjg[506,101,7] 0
pigjg[506,102,7] 0
pigjg[506,203,7] 0
pigjg[506,303,7] 0
pigjg[506,304,7] 0
pigjg[506,405,7] 0
pigjg[506,505,7] 0
pigjg[506,607,7] 0
pigjg[506,707,7] 0
pigjg[506,708,7] 0
pigjg[506,809,7] 0
pigjg[506,909,7] 1.6769300626800248e+00
pigjg[607,101,7] 0
pigjg[607,102,7] 0
pigjg[607,203,7] 0
pigjg[607,303,7] 0
pigjg[607,304,7] 3.6854405096001490e+00
pigjg[607,405,7] 0
pigjg[607,505,7] 0
pigjg[607,506,7] 0
pigjg[607,707,7] 0
pigjg[607,708,7] 0
pigjg[607,809,7] 0
pigjg[607,909,7] 0
pigjg[707,101,7] 0
pigjg[707,102,7] 2.8537972185953788e+00
pigjg[707,203,7] 0
pigjg[707,303,7] 0
pigjg[707,304,7] 0
pigjg[707,405,7] 0
pigjg[707,505,7] 0
pigjg[707,506,7] 0
pigjg[707,607,7] 0
pigjg[707,708,7] 0
pigjg[707,809,7] 0
pigjg[707,909,7] 0
pigjg[708,101,7] 0
pigjg[708,102,7] 0
pigjg[708,203,7] 5.0780510063502016e+00
pigjg[708,303,7] 0
pigjg[708,304,7] 0
pigjg[708,405,7] 0
pigjg[708,505,7] 0
pigjg[708,506,7] 0
pigjg[708,607,7] 0
pigjg[708,707,7] 0
pigjg[708,809,7] 0
pigjg[708,909,7] 0
pigjg[809,101,7] 0
pigjg[809,102,7] 0
pigjg[809,203,7] 0
pigjg[809,303,7] 0
pigjg[809,304,7] 0
pigjg[809,405,7] 0
pigjg[809,505,7] 0
pigjg[809,506,7] 0
pigjg[809,607,7] 0
pigjg[809,707,7] 1.6185673696139230e-01
pigjg[809,708,7] 0
pigjg[809,909,7] 0
pigjg[909,101,7] 0
pigjg[909,102,7] 0
pigjg[909,203,7] 0
pigjg[909,303,7] 0
pigjg[909,304,7] 0
pigjg[909,405,7] 0
pigjg[909,505,7] 2.5668726832496382e+00
pigjg[909,506,7] 0
pigjg[909,607,7] 0
pigjg[909,707,7] 0
pigjg[909,708,7] 0
pigjg[909,809,7] 0
Rig[101,7,0] 7.0221229430319454e+00
Rig[101,7,1] 2.5109661451555425e+01
Rig[102,7,0] 5.5875256632036638e+00
Rig[102,7,1] 2.6065302266520206e+01
Rig[203,7,0] 9.57124667342534
Rig[203,7,1] 2.6093411712692092e+01
Rig[303,7,0] 5.5913756534646382e+00
Rig[303,7,1] 2.6090535746328008e+01
Rig[304,7,0] 5.6786632066903593e+00
Rig[304,7,1] 2.6195274717196526e+01
Rig[405,7,0] 9.1941814008996090e+00
Rig[405,7,1] 2.6867092972142785e+01
Rig[505,7,0] 6.5736908861128711e+00
Rig[505,7,1] 2.7269178958474910e+01
Rig[506,7,0] 6.5736870310077684e+00
Rig[506,7,1] 2.7269183544703612e+01
Rig[607,7,0] 8.8117847044089181e+00
Rig[607,7,1] 2.7651713003735523e+01
Rig[707,7,0] 9.4604629970583574e+00
Rig[707,7,1] 2.8794738018705928e+01
Rig[708,7,0] 4.8087999173520721e+00
Rig[708,7,1] 2.9806760917543677e+01
Rig[809,7,0] 9.5001113368718357e+00
Rig[809,7,1] 2.8793842362128945e+01
Rig[909,7,0] 5.8422245194633433e+00
Rig[909,7,1] 2.9878281508234529e+01
rhoig[101,7] 5.2968052695842971e-01
rhoig[102,7] 2.7795400316907859e-02
rhoig[203,7] 2.4267215792406205e-07
rhoig[303,7] 9.9999864734490984e-01
rhoig[304,7] 9.1113597580772065e-01
rhoig[405,7] 0.503509901019342
rhoig[505,7] 9.9999986747630487e-01
rhoig[506,7] 9.9999713565386728e-01
rhoig[607,7] 0.999999941742594
rhoig[707,7] 9.5108122808369444e-03
rhoig[708,7] 1.3059584675161418e-01
rhoig[809,7] 9.9999993387085340e-01
rhoig[909,7] 7.6411735128810676e-01
Lig[101,7,0] 6.8616703980114835e+00
Lig[101,7,1] 2.5117131013562542e+01
Lig[102,7,0] 5.5913702611209146e+00
Lig[102,7,1] 2.6090535683781738e+01
Lig[203,7,0] 9.0001762882869709e+00
Lig[203,7,1] 2.5314947885612245e+01
Lig[303,7,0] 5.9400427493092138e+00
Lig[303,7,1] 2.6090787725596808e+01
Lig[304,7,0] 6.5736905580964837e+00
Lig[304,7,1] 2.7269178870085540e+01
Lig[405,7,0] 8.8117848963378
Lig[405,7,1] 2.7651712461109792e+01
Lig[505,7,0] 8.20887797605053
Lig[505,7,1] 2.7548664398077335e+01
Lig[506,7,0] 5.8582554543415206e+00
Lig[506,7,1] 2.8201429499381621e+01
Lig[607,7,0] 8.9532080350004151e+00
Lig[607,7,1] 2.7886374458365818e+01
Lig[707,7,0] 6.1126249626925073e+00
Lig[707,7,1] 2.8870370574578555e+01
Lig[708,7,0] 5.3313460901241854e+00
Lig[708,7,1] 2.8888020847959631e+01
Lig[809,7,0] 9.4898072370406474e+00
Lig[809,7,1] 2.8953910768447233e+01
Lig[909,7,0] 6.9027519378061584e+00
Lig[909,7,1] 2.9814868194205854e+01
landaig[101,7] 5.7777520688378559e-01
landaig[102,7] 6.4610958361299708e-08
landaig[203,7] 7.3025625412382311e-01
landaig[303,7] 9.1239113297160657e-01
landaig[304,7] 3.1981301162886666e-08
landaig[405,7] 3.0551751706298091e-07
landaig[505,7] 2.6938397945274062e-01
landaig[506,7] 4.2412499169454065e-01
landaig[607,7] 7.9454033154793535e-01
landaig[707,7] 8.1258746745038479e-01
landaig[708,7] 9.9999996032466854e-01
landaig[809,7] 8.1581514244984987e-01
landaig[909,7] 5.3913668874922394e-01
minig[101,7] 4.8094722123772547e-02
minig[102,7] 0
minig[203,7] 7.3025603255102756e-01
minig[303,7] 0
minig[304,7] 0
minig[405,7] 0
minig[505,7] 0
minig[506,7] 0
minig[607,7] 0
minig[707,7] 8.0307669736949550e-01
minig[708,7] 0.869404134673008
minig[809,7] 0
minig[909,7] 0
maxig[101,7] 0
maxig[102,7] 2.7795377905867086e-02
maxig[203,7] 0
maxig[303,7] 0.0876075987735138
maxig[304,7] 0.911135964926372
maxig[405,7] 0.503509606052285
maxig[505,7] 7.3061593022361859e-01
maxig[506,7] 5.7587216505957617e-01
maxig[607,7] 2.0545963129453806e-01
maxig[707,7] 0
maxig[708,7] 0
maxig[809,7] 1.8418483362087790e-01
maxig[909,7] 2.2498068364076138e-01
entryig[101,7] 1
entryig[102,7] 0
entryig[203,7] 1
entryig[303,7] 0
entryig[304,7] 0
entryig[405,7] 0
entryig[505,7] 0
entryig[506,7] 0
entryig[607,7] 0
entryig[707,7] 1
entryig[708,7] 1
entryig[809,7] 0
entryig[909,7] 0
muig[101,7] 1
muig[102,7] 1
muig[203,7] 1
muig[303,7] 1
muig[304,7] 1
muig[405,7] 1
muig[505,7] 1
muig[506,7] 1
muig[607,7] 1
muig[707,7] 1
muig[708,7] 1
muig[809,7] 1
muig[909,7] 1
pig[101,7] 4.8094722123772547e-02
pig[102,7] 2.7795377905867086e-02
pig[203,7] 7.3025603255102756e-01
pig[303,7] 0.0876075987735138
pig[304,7] 0.911135964926372
pig[405,7] 0.503509606052285
pig[505,7] 7.3061593022361859e-01
pig[506,7] 5.7587216505957617e-01
pig[607,7] 2.0545963129453806e-01
pig[707,7] 8.0307669736949550e-01
pig[708,7] 0.869404134673008
pig[809,7] 1.8418483362087790e-01
pig[909,7] 2.2498068364076138e-01
alphaig[101,7] 4.8094722123772547e-02
alphaig[102,7] 2.7795377905867086e-02
alphaig[203,7] 7.3025603255102756e-01
alphaig[303,7] 0.0876075987735138
alphaig[304,7] 0.911135964926372
alphaig[405,7] 0.503509606052285
alphaig[505,7] 7.3061593022361859e-01
alphaig[506,7] 5.7587216505957617e-01
alphaig[607,7] 2.0545963129453806e-01
alphaig[707,7] 8.0307669736949550e-01
alphaig[708,7] 0.869404134673008
alphaig[809,7] 1.8418483362087790e-01
alphaig[909,7] 2.2498068364076138e-01
